
Gurobi 8.1.1 (win64, Python) logging started 05/11/19 10:28:29

Optimize a model with 13 rows, 18 columns and 27 nonzeros
Model has 18 quadratic constraints
Variable types: 9 continuous, 9 integer (9 binary)
Coefficient statistics:
  Matrix range     [1e+00, 1e+00]
  QMatrix range    [1e+00, 1e+00]
  QLMatrix range   [3e+00, 3e+00]
  Objective range  [0e+00, 0e+00]
  Bounds range     [1e+00, 1e+00]
  RHS range        [1e+00, 3e+00]
Presolve removed 9 rows and 0 columns
Presolve time: 0.00s
Presolved: 67 rows, 45 columns, 165 nonzeros
Variable types: 36 continuous, 9 integer (9 binary)

Root relaxation: objective 0.000000e+00, 4 iterations, 0.00 seconds

    Nodes    |    Current Node    |     Objective Bounds      |     Work
 Expl Unexpl |  Obj  Depth IntInf | Incumbent    BestBd   Gap | It/Node Time

*    0     0               0       0.0000000    0.00000  0.00%     -    0s

Explored 1 nodes (4 simplex iterations) in 0.02 seconds
Thread count was 8 (of 8 available processors)

Solution count 1: 0 

Optimal solution found (tolerance 1.00e-04)
Best objective 0.000000000000e+00, best bound 0.000000000000e+00, gap 0.0000%
Optimize a model with 26 rows, 18 columns and 54 nonzeros
Model has 36 quadratic constraints
Variable types: 9 continuous, 9 integer (9 binary)
Coefficient statistics:
  Matrix range     [1e+00, 1e+00]
  QMatrix range    [1e+00, 1e+00]
  QLMatrix range   [3e+00, 3e+00]
  Objective range  [0e+00, 0e+00]
  Bounds range     [1e+00, 1e+00]
  RHS range        [1e+00, 3e+00]

Loaded MIP start with objective 0


Explored 0 nodes (0 simplex iterations) in 0.01 seconds
Thread count was 1 (of 8 available processors)

Solution count 1: 0 

Optimal solution found (tolerance 1.00e-04)
Best objective 0.000000000000e+00, best bound 0.000000000000e+00, gap 0.0000%
Optimize a model with 13 rows, 18 columns and 27 nonzeros
Model has 18 quadratic constraints
Variable types: 9 continuous, 9 integer (9 binary)
Coefficient statistics:
  Matrix range     [1e+00, 1e+00]
  QMatrix range    [1e+00, 1e+00]
  QLMatrix range   [3e+00, 3e+00]
  Objective range  [3e+00, 3e+00]
  Bounds range     [1e+00, 1e+00]
  RHS range        [1e+00, 3e+00]
Presolve removed 9 rows and 0 columns
Presolve time: 0.00s
Presolved: 67 rows, 45 columns, 165 nonzeros
Variable types: 36 continuous, 9 integer (9 binary)

Root relaxation: objective -9.000000e+00, 0 iterations, 0.00 seconds

    Nodes    |    Current Node    |     Objective Bounds      |     Work
 Expl Unexpl |  Obj  Depth IntInf | Incumbent    BestBd   Gap | It/Node Time

*    0     0               0       9.0000000    9.00000  0.00%     -    0s

Explored 1 nodes (0 simplex iterations) in 0.02 seconds
Thread count was 8 (of 8 available processors)

Solution count 1: 9 

Optimal solution found (tolerance 1.00e-04)
Best objective 9.000000000000e+00, best bound 9.000000000000e+00, gap 0.0000%

Gurobi 8.1.1 (win64, Python) logging started 05/14/19 18:06:07

Academic license - for non-commercial use only
Optimize a model with 13 rows, 18 columns and 27 nonzeros
Model has 18 quadratic constraints
Variable types: 9 continuous, 9 integer (9 binary)
Coefficient statistics:
  Matrix range     [1e+00, 1e+00]
  QMatrix range    [1e+00, 1e+00]
  QLMatrix range   [3e+00, 3e+00]
  Objective range  [3e+00, 3e+00]
  Bounds range     [1e+00, 1e+00]
  RHS range        [1e+00, 3e+00]
Presolve removed 9 rows and 0 columns
Presolve time: 0.01s
Presolved: 67 rows, 45 columns, 165 nonzeros
Variable types: 36 continuous, 9 integer (9 binary)

Root relaxation: objective -9.000000e+00, 0 iterations, 0.00 seconds

    Nodes    |    Current Node    |     Objective Bounds      |     Work
 Expl Unexpl |  Obj  Depth IntInf | Incumbent    BestBd   Gap | It/Node Time

*    0     0               0       9.0000000    9.00000  0.00%     -    0s
